
  22   10
  10   10   10   10   10   10   10   10   10   10

   0   0   0   0   0   0   0   0   0   0   0  10 2 3 5 8 10 11 18 19 20 21 
   4   0   0   0   0  10   0   0   0   0   0   3 17 15 4 
  10   0  10   0   0   0   0   0   0   0   0   3 15 14 6 
   7   0   0  10   0   0   0   0   0   0   0   2 14 6 
   1   0   0   0   0   0   0   0   0   0  10   3 16 14 9 
   9   0   0   0   0   0   0   0   0  10   0   2 13 7 
   5   0   0   0   0   0   0   0   0  10   0   1 9 
   5   0   0   0  10   0   0   0   0   0   0   1 9 
   5   0   0   0   0   0  10   0   0   0   0   1 12 
   2   0   0   0   0   0   0   0   0   0  10   1 15 
  10   0   0   0   0   0   0   0   0   0  10   1 13 
   3   0   0   0   0   0   0   0   0  10   0   1 22
   5   0   0   0   0   0   0   0  10   0   0   1 22
   4   0   0   0   0   0  10   0   0   0   0   1 22
  10   0   0   0   0   0   0  10   0   0   0   1 22
   5   0   0   0   0   0  10   0   0   0   0   1 22
   1   0   0   0   0   0   0   0   0  10   0   1 22
   6   0   0  10   0   0   0   0   0   0   0   1 22
   2   0   0   0  10   0   0   0   0   0   0   1 22
   3  10   0   0   0   0   0   0   0   0   0   1 22
   5   0   0   0   0   0   0   0  10   0   0   1 22
   0   0   0   0   0   0   0   0   0   0   0   0 
